\ENCODING=ISO-8859-1
\Problem name: IloCplex

Minimize
 obj1: 2247.52168673873 w_0_0 + 424.264068711929 w_0_1 + 456.070170039655 w_0_2
       + 500 w_0_3 + 411.82520563948 w_0_4 + 360.555127546399 w_0_5
       + 466.476151587624 w_0_6 + 384.187454245971 w_0_7
       + 412.310562561766 w_0_8 + 373.630833845388 w_0_9
       + 386.264158316559 w_0_10 + 331.058907144937 w_0_11
       + 430.81318457076 w_0_12 + 447.213595499958 w_0_13
Subject To
 packetCheck_1:       w_0_1  = 1
 packetCheck_2:       w_0_2  = 1
 packetCheck_3:       w_0_3  = 1
 packetCheck_4:       w_0_4  = 1
 packetCheck_5:       w_0_5  = 1
 packetCheck_6:       w_0_6  = 1
 packetCheck_7:       w_0_7  = 1
 packetCheck_8:       w_0_8  = 1
 packetCheck_9:       w_0_9  = 1
 packetCheck_10:      w_0_10  = 1
 packetCheck_11:      w_0_11  = 1
 packetCheck_12:      w_0_12  = 1
 packetCheck_13:      w_0_13  = 1
 packets_ofVehicle_0: 10 w_0_1 + 10 w_0_2 + 10 w_0_3 + 30 w_0_4 + 10 w_0_5
                      + 10 w_0_6 + 10 w_0_7 + 10 w_0_8 + 10 w_0_9 + 20 w_0_10
                      + 10 w_0_11 + 10 w_0_12 + 10 w_0_13 <= 200
Bounds
 0 <= w_0_0 <= 1
 0 <= w_0_1 <= 1
 0 <= w_0_2 <= 1
 0 <= w_0_3 <= 1
 0 <= w_0_4 <= 1
 0 <= w_0_5 <= 1
 0 <= w_0_6 <= 1
 0 <= w_0_7 <= 1
 0 <= w_0_8 <= 1
 0 <= w_0_9 <= 1
 0 <= w_0_10 <= 1
 0 <= w_0_11 <= 1
 0 <= w_0_12 <= 1
 0 <= w_0_13 <= 1
Binaries
 w_0_0  w_0_1  w_0_2  w_0_3  w_0_4  w_0_5  w_0_6  w_0_7  w_0_8  w_0_9  w_0_10 
 w_0_11  w_0_12  w_0_13 
End
